(set-info :smt-lib-version 2.6)
(set-logic QF_SLIA)
(set-info :source |
Generated by: Denghang Hu
Generated on: 2023-04-14
Application: Evaluate string solvers
Target solver: Ostrich, Z3str3, CVC5
Description: The instance consists of:
(1) a regular membership predicate from the real world
(2) a regular membership predicate to sanitize danger letters in javascript such as <,>,&,",'
(3) a lower bound for string length
|)
(set-info :license "https://creativecommons.org/licenses/by/4.0/")
(set-info :category "industrial")
(set-info :status unknown)
        ;test regex r"(?:[KR]-*){1,3}(?:[^-]?-*){2}[KR]-*(?:[^-]-*){2}(?:[^-]?-*){2}[ILVM]-*[^-]-*[ILVF]"
(declare-const X String)
(assert (str.in_re X (re.++ (str.to_re "r") (re.++ (str.to_re "\u{22}") (re.++ ((_ re.loop 1 3) (re.++ (re.union (str.to_re "K") (str.to_re "R")) (re.* (str.to_re "-")))) (re.++ ((_ re.loop 2 2) (re.++ (re.opt (re.diff re.allchar (str.to_re "-"))) (re.* (str.to_re "-")))) (re.++ (re.union (str.to_re "K") (str.to_re "R")) (re.++ (re.* (str.to_re "-")) (re.++ ((_ re.loop 2 2) (re.++ (re.diff re.allchar (str.to_re "-")) (re.* (str.to_re "-")))) (re.++ ((_ re.loop 2 2) (re.++ (re.opt (re.diff re.allchar (str.to_re "-"))) (re.* (str.to_re "-")))) (re.++ (re.union (str.to_re "I") (re.union (str.to_re "L") (re.union (str.to_re "V") (str.to_re "M")))) (re.++ (re.* (str.to_re "-")) (re.++ (re.diff re.allchar (str.to_re "-")) (re.++ (re.* (str.to_re "-")) (re.++ (re.union (str.to_re "I") (re.union (str.to_re "L") (re.union (str.to_re "V") (str.to_re "F")))) (str.to_re "\u{22}"))))))))))))))))
; sanitize danger characters:  < > ' " &
(assert (not (str.in_re X (re.++ re.all (re.union (str.to_re "\u{3c}") (str.to_re "\u{3e}") (str.to_re "\u{27}") (str.to_re "\u{22}") (str.to_re "\u{26}")) re.all))))
(assert (< 20 (str.len X)))
(check-sat)
(exit)
